; SLOAD SWAP1 SWAP2 POP DUP2 GT => DUP2 SWAP3 POP SLOAD LT
(set-option :produce-proofs true)
; 
(set-info :status unknown)
(declare-fun storage_t ((_ BitVec 256) (_ BitVec 256) (_ BitVec 256) (_ BitVec 256) Int (_ BitVec 256)) (_ BitVec 256))
(declare-fun storage_s ((_ BitVec 256) (_ BitVec 256) (_ BitVec 256) (_ BitVec 256) Int (_ BitVec 256)) (_ BitVec 256))
(declare-fun exc_halt_t (Int) Bool)
(declare-fun exc_halt_s (Int) Bool)
(declare-fun stack_t ((_ BitVec 256) (_ BitVec 256) (_ BitVec 256) (_ BitVec 256) Int (_ BitVec 6)) (_ BitVec 256))
(declare-fun stack_s ((_ BitVec 256) (_ BitVec 256) (_ BitVec 256) (_ BitVec 256) Int (_ BitVec 6)) (_ BitVec 256))
(declare-fun sc_t (Int) (_ BitVec 6))
(declare-fun sc_s (Int) (_ BitVec 6))
(declare-fun used_gas_t ((_ BitVec 256) (_ BitVec 256) (_ BitVec 256) (_ BitVec 256) Int) Int)
(declare-fun used_gas_s ((_ BitVec 256) (_ BitVec 256) (_ BitVec 256) (_ BitVec 256) Int) Int)
(assert
 (exists ((x_0 (_ BitVec 256)) (x_1 (_ BitVec 256)) (x_2 (_ BitVec 256)) (x_SLOAD_0 (_ BitVec 256)) )(let (($x9120 (forall ((w (_ BitVec 256)) )(let ((?x8139 (storage_t x_0 x_1 x_2 x_SLOAD_0 5 w)))
 (let ((?x11224 (storage_s x_0 x_1 x_2 x_SLOAD_0 6 w)))
 (= ?x11224 ?x8139))))
 ))
 (let (($x886 (exc_halt_t 5)))
 (let (($x772 (exc_halt_s 6)))
 (let (($x889 (= $x772 $x886)))
 (let (($x9254 (forall ((n (_ BitVec 6)) )(let ((?x9737 (stack_t x_0 x_1 x_2 x_SLOAD_0 5 n)))
 (let ((?x4862 (stack_s x_0 x_1 x_2 x_SLOAD_0 6 n)))
 (let (($x7013 (= ?x4862 ?x9737)))
 (or (bvsle (sc_t 5) n) $x7013)))))
 ))
 (let ((?x919 (sc_t 5)))
 (let ((?x926 (sc_s 6)))
 (let (($x929 (= ?x926 ?x919)))
 (let ((?x3894 (used_gas_t x_0 x_1 x_2 x_SLOAD_0 0)))
 (let ((?x1616 (used_gas_s x_0 x_1 x_2 x_SLOAD_0 0)))
 (let (($x6312 (= ?x1616 ?x3894)))
 (let (($x50 (forall ((w (_ BitVec 256)) )(let ((?x2970 (storage_t x_0 x_1 x_2 x_SLOAD_0 0 w)))
 (let ((?x10766 (storage_s x_0 x_1 x_2 x_SLOAD_0 0 w)))
 (= ?x10766 ?x2970))))
 ))
 (let (($x56 (exc_halt_t 0)))
 (let (($x57 (exc_halt_s 0)))
 (let (($x58 (= $x57 $x56)))
 (let (($x5100 (forall ((n (_ BitVec 6)) )(let ((?x10004 (stack_t x_0 x_1 x_2 x_SLOAD_0 0 n)))
 (let ((?x2031 (stack_s x_0 x_1 x_2 x_SLOAD_0 0 n)))
 (let (($x6837 (= ?x2031 ?x10004)))
 (or (bvsle (sc_t 0) n) $x6837)))))
 ))
 (let ((?x63 (sc_t 0)))
 (let ((?x72 (sc_s 0)))
 (let (($x73 (= ?x72 ?x63)))
 (let (($x11623 (= $x886 (or (exc_halt_t 4) (not (bvsle (_ bv0 6) (bvadd (_ bv62 6) (sc_t 4))))))))
 (let (($x6116 (forall ((w (_ BitVec 256)) )(let ((?x5606 (storage_t x_0 x_1 x_2 x_SLOAD_0 4 w)))
 (let ((?x8139 (storage_t x_0 x_1 x_2 x_SLOAD_0 5 w)))
 (= ?x8139 ?x5606))))
 ))
 (let (($x9696 (forall ((n (_ BitVec 6)) )(let ((?x2456 (stack_t x_0 x_1 x_2 x_SLOAD_0 4 n)))
 (let ((?x9737 (stack_t x_0 x_1 x_2 x_SLOAD_0 5 n)))
 (or (bvsle (bvadd (_ bv62 6) (sc_t 4)) n) (= ?x9737 ?x2456)))))
 ))
 (let (($x10288 (= (used_gas_t x_0 x_1 x_2 x_SLOAD_0 5) (+ 3 (used_gas_t x_0 x_1 x_2 x_SLOAD_0 4)))))
 (let ((?x3757 (sc_t 4)))
 (let ((?x10337 (bvadd (_ bv63 6) ?x3757)))
 (let ((?x6992 (stack_t x_0 x_1 x_2 x_SLOAD_0 4 ?x10337)))
 (let ((?x9605 (ite (bvule (stack_t x_0 x_1 x_2 x_SLOAD_0 4 (bvadd (_ bv62 6) ?x3757)) ?x6992) (_ bv0 256) (_ bv1 256))))
 (let (($x3723 (exc_halt_t 4)))
 (let (($x11093 (= $x3723 (or (exc_halt_t 3) (not (bvsle (_ bv0 6) (bvadd (_ bv63 6) (sc_t 3))))))))
 (let (($x10998 (forall ((w (_ BitVec 256)) )(let ((?x1596 (storage_t x_0 x_1 x_2 x_SLOAD_0 3 w)))
 (let ((?x5606 (storage_t x_0 x_1 x_2 x_SLOAD_0 4 w)))
 (= ?x5606 ?x1596))))
 ))
 (let (($x10996 (forall ((n (_ BitVec 6)) )(let ((?x4282 (stack_t x_0 x_1 x_2 x_SLOAD_0 3 n)))
 (let ((?x2456 (stack_t x_0 x_1 x_2 x_SLOAD_0 4 n)))
 (or (bvsle (bvadd (_ bv63 6) (sc_t 3)) n) (= ?x2456 ?x4282)))))
 ))
 (let ((?x721 (used_gas_t x_0 x_1 x_2 x_SLOAD_0 4)))
 (let ((?x10383 (storage_t x_0 x_1 x_2 x_SLOAD_0 3 (stack_t x_0 x_1 x_2 x_SLOAD_0 3 (bvadd (_ bv63 6) (sc_t 3))))))
 (let (($x2075 (exc_halt_t 3)))
 (let (($x6303 (= $x2075 (or (exc_halt_t 2) (not (bvsle (_ bv0 6) (bvadd (_ bv63 6) (sc_t 2))))))))
 (let (($x8111 (forall ((w (_ BitVec 256)) )(let ((?x414 (storage_t x_0 x_1 x_2 x_SLOAD_0 2 w)))
 (let ((?x1596 (storage_t x_0 x_1 x_2 x_SLOAD_0 3 w)))
 (= ?x1596 ?x414))))
 ))
 (let (($x4804 (forall ((n (_ BitVec 6)) )(let ((?x6241 (stack_t x_0 x_1 x_2 x_SLOAD_0 2 n)))
 (let ((?x4282 (stack_t x_0 x_1 x_2 x_SLOAD_0 3 n)))
 (or (bvsle (bvadd (_ bv63 6) (sc_t 2)) n) (= ?x4282 ?x6241)))))
 ))
 (let ((?x2058 (used_gas_t x_0 x_1 x_2 x_SLOAD_0 3)))
 (let (($x5252 (exc_halt_t 2)))
 (let (($x9504 (= $x5252 (or (exc_halt_t 1) (not (bvsle (_ bv0 6) (bvadd (_ bv60 6) (sc_t 1))))))))
 (let (($x8808 (forall ((w (_ BitVec 256)) )(let ((?x7607 (storage_t x_0 x_1 x_2 x_SLOAD_0 1 w)))
 (let ((?x414 (storage_t x_0 x_1 x_2 x_SLOAD_0 2 w)))
 (= ?x414 ?x7607))))
 ))
 (let (($x6386 (forall ((n (_ BitVec 6)) )(let ((?x7207 (stack_t x_0 x_1 x_2 x_SLOAD_0 1 n)))
 (let ((?x6241 (stack_t x_0 x_1 x_2 x_SLOAD_0 2 n)))
 (or (bvsle (bvadd (_ bv60 6) (sc_t 1)) n) (= ?x6241 ?x7207)))))
 ))
 (let ((?x3110 (used_gas_t x_0 x_1 x_2 x_SLOAD_0 2)))
 (let (($x6653 (= (stack_t x_0 x_1 x_2 x_SLOAD_0 2 (bvadd (_ bv62 6) (sc_t 2))) (stack_t x_0 x_1 x_2 x_SLOAD_0 1 (bvadd (_ bv62 6) (sc_t 1))))))
 (let (($x11026 (= (stack_t x_0 x_1 x_2 x_SLOAD_0 2 (bvadd (_ bv61 6) (sc_t 2))) (stack_t x_0 x_1 x_2 x_SLOAD_0 1 (bvadd (_ bv61 6) (sc_t 1))))))
 (let ((?x6920 (stack_t x_0 x_1 x_2 x_SLOAD_0 1 (bvadd (_ bv63 6) (sc_t 1)))))
 (let (($x11147 (= (stack_t x_0 x_1 x_2 x_SLOAD_0 2 (bvadd (_ bv60 6) (sc_t 2))) ?x6920)))
 (let (($x11315 (= (stack_t x_0 x_1 x_2 x_SLOAD_0 2 (bvadd (_ bv63 6) (sc_t 2))) (stack_t x_0 x_1 x_2 x_SLOAD_0 1 (bvadd (_ bv60 6) (sc_t 1))))))
 (let (($x3728 (or $x56 (not (= ((_ extract 6 6) (bvadd (_ bv1 7) (concat (_ bv0 1) ?x63))) (_ bv0 1))) (not (bvsle (_ bv0 6) (bvadd (_ bv62 6) ?x63))))))
 (let (($x8096 (exc_halt_t 1)))
 (let (($x1752 (forall ((w (_ BitVec 256)) )(let ((?x2970 (storage_t x_0 x_1 x_2 x_SLOAD_0 0 w)))
 (let ((?x7607 (storage_t x_0 x_1 x_2 x_SLOAD_0 1 w)))
 (= ?x7607 ?x2970))))
 ))
 (let (($x8321 (forall ((n (_ BitVec 6)) )(let ((?x10004 (stack_t x_0 x_1 x_2 x_SLOAD_0 0 n)))
 (let ((?x7207 (stack_t x_0 x_1 x_2 x_SLOAD_0 1 n)))
 (or (= ?x7207 ?x10004) (bvsle (bvadd (_ bv62 6) (sc_t 0)) n)))))
 ))
 (let (($x10402 (= (stack_t x_0 x_1 x_2 x_SLOAD_0 1 (bvadd (_ bv63 6) ?x63)) (stack_t x_0 x_1 x_2 x_SLOAD_0 0 (bvadd (_ bv63 6) ?x63)))))
 (let ((?x3719 (bvadd (_ bv62 6) ?x63)))
 (let ((?x9503 (stack_t x_0 x_1 x_2 x_SLOAD_0 0 ?x3719)))
 (let (($x10395 (= $x772 (or (exc_halt_s 5) (not (bvsle (_ bv0 6) (bvadd (_ bv62 6) (sc_s 5))))))))
 (let (($x3754 (forall ((w (_ BitVec 256)) )(let ((?x599 (storage_s x_0 x_1 x_2 x_SLOAD_0 5 w)))
 (let ((?x11224 (storage_s x_0 x_1 x_2 x_SLOAD_0 6 w)))
 (= ?x11224 ?x599))))
 ))
 (let (($x9729 (forall ((n (_ BitVec 6)) )(let ((?x233 (stack_s x_0 x_1 x_2 x_SLOAD_0 5 n)))
 (let ((?x4862 (stack_s x_0 x_1 x_2 x_SLOAD_0 6 n)))
 (or (= ?x4862 ?x233) (bvsle (bvadd (_ bv62 6) (sc_s 5)) n)))))
 ))
 (let (($x6579 (= (used_gas_s x_0 x_1 x_2 x_SLOAD_0 6) (+ 3 (used_gas_s x_0 x_1 x_2 x_SLOAD_0 5)))))
 (let ((?x805 (sc_s 5)))
 (let ((?x5665 (bvadd (_ bv63 6) ?x805)))
 (let ((?x7043 (stack_s x_0 x_1 x_2 x_SLOAD_0 5 ?x5665)))
 (let ((?x7764 (ite (bvule ?x7043 (stack_s x_0 x_1 x_2 x_SLOAD_0 5 (bvadd (_ bv62 6) ?x805))) (_ bv0 256) (_ bv1 256))))
 (let (($x7172 (exc_halt_s 4)))
 (let (($x9351 (or (not (= ((_ extract 6 6) (bvadd (_ bv1 7) (concat (_ bv0 1) (sc_s 4)))) (_ bv0 1))) $x7172 (not (bvsle (_ bv0 6) (bvadd (_ bv62 6) (sc_s 4)))))))
 (let (($x3979 (exc_halt_s 5)))
 (let (($x3915 (forall ((w (_ BitVec 256)) )(let ((?x5545 (storage_s x_0 x_1 x_2 x_SLOAD_0 4 w)))
 (let ((?x599 (storage_s x_0 x_1 x_2 x_SLOAD_0 5 w)))
 (= ?x599 ?x5545))))
 ))
 (let (($x9043 (forall ((n (_ BitVec 6)) )(let ((?x7347 (stack_s x_0 x_1 x_2 x_SLOAD_0 4 n)))
 (let ((?x233 (stack_s x_0 x_1 x_2 x_SLOAD_0 5 n)))
 (or (= ?x233 ?x7347) (bvsle (bvadd (_ bv62 6) (sc_s 4)) n)))))
 ))
 (let ((?x10497 (used_gas_s x_0 x_1 x_2 x_SLOAD_0 5)))
 (let (($x5549 (= (stack_s x_0 x_1 x_2 x_SLOAD_0 5 (bvadd (_ bv63 6) (sc_s 4))) (stack_s x_0 x_1 x_2 x_SLOAD_0 4 (bvadd (_ bv63 6) (sc_s 4))))))
 (let ((?x4305 (sc_s 4)))
 (let ((?x3279 (bvadd (_ bv62 6) ?x4305)))
 (let ((?x1663 (stack_s x_0 x_1 x_2 x_SLOAD_0 4 ?x3279)))
 (let (($x2399 (= $x7172 (or (exc_halt_s 3) (not (bvsle (_ bv0 6) (bvadd (_ bv63 6) (sc_s 3))))))))
 (let (($x6158 (forall ((w (_ BitVec 256)) )(let ((?x10738 (storage_s x_0 x_1 x_2 x_SLOAD_0 3 w)))
 (let ((?x5545 (storage_s x_0 x_1 x_2 x_SLOAD_0 4 w)))
 (= ?x5545 ?x10738))))
 ))
 (let (($x6313 (forall ((n (_ BitVec 6)) )(let ((?x3297 (stack_s x_0 x_1 x_2 x_SLOAD_0 3 n)))
 (let ((?x7347 (stack_s x_0 x_1 x_2 x_SLOAD_0 4 n)))
 (or (= ?x7347 ?x3297) (bvsle (bvadd (_ bv63 6) (sc_s 3)) n)))))
 ))
 (let ((?x9049 (used_gas_s x_0 x_1 x_2 x_SLOAD_0 4)))
 (let (($x292 (exc_halt_s 3)))
 (let (($x6334 (= $x292 (or (exc_halt_s 2) (not (bvsle (_ bv0 6) (bvadd (_ bv61 6) (sc_s 2))))))))
 (let (($x6205 (forall ((w (_ BitVec 256)) )(let ((?x566 (storage_s x_0 x_1 x_2 x_SLOAD_0 2 w)))
 (let ((?x10738 (storage_s x_0 x_1 x_2 x_SLOAD_0 3 w)))
 (= ?x10738 ?x566))))
 ))
 (let (($x7112 (forall ((n (_ BitVec 6)) )(let ((?x457 (stack_s x_0 x_1 x_2 x_SLOAD_0 2 n)))
 (let ((?x3297 (stack_s x_0 x_1 x_2 x_SLOAD_0 3 n)))
 (or (= ?x3297 ?x457) (bvsle (bvadd (_ bv61 6) (sc_s 2)) n)))))
 ))
 (let ((?x8577 (used_gas_s x_0 x_1 x_2 x_SLOAD_0 3)))
 (let ((?x2483 (stack_s x_0 x_1 x_2 x_SLOAD_0 2 (bvadd (_ bv62 6) (sc_s 2)))))
 (let (($x2559 (= (stack_s x_0 x_1 x_2 x_SLOAD_0 3 (bvadd (_ bv62 6) (sc_s 3))) ?x2483)))
 (let ((?x8992 (stack_s x_0 x_1 x_2 x_SLOAD_0 2 (bvadd (_ bv63 6) (sc_s 2)))))
 (let (($x7452 (= (stack_s x_0 x_1 x_2 x_SLOAD_0 3 (bvadd (_ bv61 6) (sc_s 3))) ?x8992)))
 (let (($x7249 (= (stack_s x_0 x_1 x_2 x_SLOAD_0 3 (bvadd (_ bv63 6) (sc_s 3))) (stack_s x_0 x_1 x_2 x_SLOAD_0 2 (bvadd (_ bv61 6) (sc_s 2))))))
 (let (($x247 (exc_halt_s 2)))
 (let (($x1793 (= $x247 (or (exc_halt_s 1) (not (bvsle (_ bv0 6) (bvadd (_ bv62 6) (sc_s 1))))))))
 (let (($x6092 (forall ((w (_ BitVec 256)) )(let ((?x2432 (storage_s x_0 x_1 x_2 x_SLOAD_0 1 w)))
 (let ((?x566 (storage_s x_0 x_1 x_2 x_SLOAD_0 2 w)))
 (= ?x566 ?x2432))))
 ))
 (let (($x37 (forall ((n (_ BitVec 6)) )(let ((?x7501 (stack_s x_0 x_1 x_2 x_SLOAD_0 1 n)))
 (let ((?x457 (stack_s x_0 x_1 x_2 x_SLOAD_0 2 n)))
 (or (bvsle (bvadd (_ bv62 6) (sc_s 1)) n) (= ?x457 ?x7501)))))
 ))
 (let ((?x940 (used_gas_s x_0 x_1 x_2 x_SLOAD_0 2)))
 (let ((?x383 (stack_s x_0 x_1 x_2 x_SLOAD_0 1 (bvadd (_ bv63 6) (sc_s 1)))))
 (let (($x8829 (= ?x8992 (stack_s x_0 x_1 x_2 x_SLOAD_0 1 (bvadd (_ bv62 6) (sc_s 1))))))
 (let (($x20 (forall ((w (_ BitVec 256)) )(let ((?x10766 (storage_s x_0 x_1 x_2 x_SLOAD_0 0 w)))
 (let ((?x2432 (storage_s x_0 x_1 x_2 x_SLOAD_0 1 w)))
 (= ?x2432 ?x10766))))
 ))
 (let (($x8776 (forall ((n (_ BitVec 6)) )(let ((?x2031 (stack_s x_0 x_1 x_2 x_SLOAD_0 0 n)))
 (let ((?x7501 (stack_s x_0 x_1 x_2 x_SLOAD_0 1 n)))
 (or (bvsle (bvadd (_ bv63 6) (sc_s 0)) n) (= ?x7501 ?x2031)))))
 ))
 (let ((?x5772 (storage_s x_0 x_1 x_2 x_SLOAD_0 0 (stack_s x_0 x_1 x_2 x_SLOAD_0 0 (bvadd (_ bv63 6) ?x72)))))
 (let (($x10828 (forall ((w (_ BitVec 256)) )(let (($x10033 (= w (stack_s x_0 x_1 x_2 x_SLOAD_0 0 (bvadd (_ bv63 6) (sc_s 0))))))
 (let ((?x10766 (storage_s x_0 x_1 x_2 x_SLOAD_0 0 w)))
 (= ?x10766 (ite $x10033 x_SLOAD_0 (_ bv0 256))))))
 ))
 (let (($x6945 (= ?x1616 0)))
 (let (($x1268 (= (stack_s x_0 x_1 x_2 x_SLOAD_0 0 (_ bv2 6)) x_2)))
 (let (($x4842 (= (stack_s x_0 x_1 x_2 x_SLOAD_0 0 (_ bv1 6)) x_1)))
 (let (($x5503 (= (stack_s x_0 x_1 x_2 x_SLOAD_0 0 (_ bv0 6)) x_0)))
 (let (($x5315 (= ?x72 (_ bv3 6))))
 (and $x5315 $x5503 $x4842 $x1268 (not $x57) $x6945 $x10828 (= ?x383 ?x5772) (= (used_gas_s x_0 x_1 x_2 x_SLOAD_0 1) (+ 200 ?x1616)) (= (sc_s 1) ?x72) $x8776 $x20 (= (exc_halt_s 1) (or $x57 (not (bvsle (_ bv0 6) (bvadd (_ bv63 6) ?x72))))) $x8829 (= ?x2483 ?x383) (= ?x940 (+ 3 (used_gas_s x_0 x_1 x_2 x_SLOAD_0 1))) (= (sc_s 2) (sc_s 1)) $x37 $x6092 $x1793 $x7249 $x7452 $x2559 (= ?x8577 (+ 3 ?x940)) (= (sc_s 3) (sc_s 2)) $x7112 $x6205 $x6334 (= ?x9049 (+ 2 ?x8577)) (= ?x4305 (bvadd (_ bv63 6) (sc_s 3))) $x6313 $x6158 $x2399 (= ?x7043 ?x1663) (= (stack_s x_0 x_1 x_2 x_SLOAD_0 5 ?x3279) ?x1663) $x5549 (= ?x10497 (+ 3 ?x9049)) (= ?x805 (bvadd (_ bv1 6) ?x4305)) $x9043 $x3915 (= $x3979 $x9351) (= (stack_s x_0 x_1 x_2 x_SLOAD_0 6 (bvadd (_ bv63 6) ?x926)) ?x7764) $x6579 (= ?x926 ?x5665) $x9729 $x3754 $x10395 (= ?x6920 ?x9503) (= (stack_t x_0 x_1 x_2 x_SLOAD_0 1 ?x3719) ?x9503) $x10402 (= (used_gas_t x_0 x_1 x_2 x_SLOAD_0 1) (+ 3 ?x3894)) (= (sc_t 1) (bvadd (_ bv1 6) ?x63)) $x8321 $x1752 (= $x8096 $x3728) $x11315 $x11147 $x11026 $x6653 (= ?x3110 (+ 3 (used_gas_t x_0 x_1 x_2 x_SLOAD_0 1))) (= (sc_t 2) (sc_t 1)) $x6386 $x8808 $x9504 (= ?x2058 (+ 2 ?x3110)) (= (sc_t 3) (bvadd (_ bv63 6) (sc_t 2))) $x4804 $x8111 $x6303 (= ?x6992 ?x10383) (= ?x721 (+ 200 ?x2058)) (= ?x3757 (sc_t 3)) $x10996 $x10998 $x11093 (= (stack_t x_0 x_1 x_2 x_SLOAD_0 5 (bvadd (_ bv63 6) ?x919)) ?x9605) $x10288 (= ?x919 ?x10337) $x9696 $x6116 $x11623 $x73 $x5100 $x58 $x50 $x6312 (not (and $x929 $x9254 $x889 $x9120)))))))))))))))))))))))))))))))))))))))))))))))))))))))))))))))))))))))))))))))))))))))))))))))))))))))))))
 )
(check-sat)
(get-proof)
